NAME: line_20_1
TYPE: TSP
COMMENT: line_20_1
DIMENSION: 20
EDGE_WEIGHT_TYPE: EUC_2D
NODE_COORD_SECTION
1 0.0 126.0
2 0.0 109.0
3 0.0 72.0
4 0.0 61.0
5 0.0 101.0
6 0.0 28.0
7 0.0 126.0
8 0.0 11.0
9 0.0 17.0
10 0.0 195.0
11 0.0 45.0
12 0.0 111.0
13 0.0 176.0
14 0.0 177.0
15 0.0 68.0
16 0.0 180.0
17 0.0 167.0
18 0.0 181.0
19 0.0 74.0
20 0.0 95.0
